GeneratedTests/Random_11/Random_11_9.tsp
NAME: Random_11_9
TYPE: TSP
DIMENSION: 11
EDGE_WEIGHT_TYPE: EUC_2D
NODE_COORD_SECTION
1 12.08425 5.3831577
2 27.499838 10.79916
3 4.799966 7.1047316
4 15.7058935 11.499953
5 19.650724 2.5596318
6 26.47961 6.6548777
7 19.106298 3.6369064
8 24.86997 20.537037
9 18.100683 32.529636
10 10.940409 9.535998
11 18.137741 18.692493
EOF
