GeneratedTests/Random_11/Random_11_9.txt
NAME: Random_11_9
TYPE: TSP
DIMENSION: 11
EDGE_WEIGHT_TYPE: EUC_2D
NODE_COORD_SECTION
1 20.166048 5.3513775
2 2.438798 18.668903
3 6.9153337 9.096891
4 24.130539 13.186907
5 24.420385 16.314417
6 4.507655 14.361236
7 29.35044 1.3870621
8 30.597095 0.2945552
9 6.853237 12.639316
10 4.383214 5.2208505
11 9.641118 16.197355
EOF
